NAME : morphed20-2-18
COMMENT : Generated using the function morphInstances from the R-package netgen (Bossek,2015) - Number of clusters: 2 Alpha: 0.5
TYPE : TSP
DIMENSION : 20
EDGE_WEIGHT_TYPE : EUC_2D
NODE_COORD_SECTION
1 61.6785506934 3.0211227253
2 48.7969001294 7.4940805903
3 97.005142748 79.2148632941
4 41.3062819433 82.848564779
5 10.1994770193 6.4433911571
6 60.4811092672 70.5404153547
7 34.6857363851 41.4553151359
8 60.0181798761 56.7055940271
9 34.7633672696 14.4445795865
10 21.2998740866 19.3774237815
11 66.2583369024 89.072774888
12 72.707824088 55.9013352665
13 14.0551096252 9.5471890673
14 28.7062999235 14.2312763459
15 87.5918261787 44.8689422287
16 39.1517968067 73.3846714835
17 63.6705089029 84.3734921979
18 7.8407412134 36.9225759717
19 84.7380529951 71.9031164967
20 10.3267549181 31.1544757454
EOF
